0	22	18	6	8	20	7	25	31	12	27
22	0	11	27	30	32	20	10	28	21	7
18	11	0	22	26	22	21	7	18	12	19
6	27	22	0	6	17	13	29	32	12	33
8	30	26	6	0	23	12	34	38	18	34
20	32	22	17	23	0	28	29	20	11	40
7	20	21	13	12	28	0	26	37	18	23
25	10	7	29	34	29	26	0	19	19	17
31	28	18	32	38	20	37	19	0	19	35
12	21	12	12	18	11	18	19	19	0	28
27	7	19	33	34	40	23	17	35	28	0
